
























































































56 5 25 
73 13 72 
26 33 14 
43 21 36 
38 69 75 
57 63 27 
35 18 59 
51 40 68 
71 61 15 76 
6 22 32 
12 37 24 
50 39 74 
49 34 1 67 
0 29 47 
2 42 55 
46 70 48 
20 23 65 
9 66 19 

62 8 31 
60 64 45 
54 4 16 
11 53 10 
28 58 3 
30 44 52 
17 41 7 
